 Chabazite substituee Si->Al et H-isobut
   1.00000000000000     
     8.9677950000000006    8.9677939999999996    0.0000000000000000
    -9.6033320000000000    9.6033390000000001    0.0000000000000000
    -0.6580570000000000   -0.6580570000000000    9.2442740000000008
   c    H 
   3   8
Direct
  0.8632704227397274  0.7515620695528504  0.8695171026997214
  0.9323838946859432  0.7153580940234090  0.7524077707971643
  0.0258165759696565  0.6515256013512769  0.8135710307337075
  0.8630357096439629  0.8328384899191984  0.8785347270853060
  0.8831445781161997  0.6730023749436546  0.6684799563210756
 -0.0023404634682713  0.5840798214594093  0.8648628366459582
  0.8933770472563481  0.7225433468186758  0.9773803954839246
  0.7797730853062848  0.7273673586523032  0.8482205073389100
  0.9627776914318918  0.7793952124053476  0.6951642145813026
  0.0771299220043896  0.6921685938783674  0.8970037346002843
  0.0753266863138529  0.6284320769955067  0.7278240537126333
 
  0.00000000E+00  0.00000000E+00  0.00000000E+00
  0.00000000E+00  0.00000000E+00  0.00000000E+00
  0.00000000E+00  0.00000000E+00  0.00000000E+00
  0.00000000E+00  0.00000000E+00  0.00000000E+00
  0.00000000E+00  0.00000000E+00  0.00000000E+00
  0.00000000E+00  0.00000000E+00  0.00000000E+00
  0.00000000E+00  0.00000000E+00  0.00000000E+00
  0.00000000E+00  0.00000000E+00  0.00000000E+00
  0.00000000E+00  0.00000000E+00  0.00000000E+00
  0.00000000E+00  0.00000000E+00  0.00000000E+00
  0.00000000E+00  0.00000000E+00  0.00000000E+00
